;; produced by cvc4_16.drv ;;
(set-logic AUFBVFPDTNIRA)
(set-info :smt-lib-version 2.6)
;;; generated by SMT-LIB2 driver
;;; SMT-LIB2 driver: bit-vectors, common part
;;; SMT-LIB2: integer arithmetic
(declare-sort string 0)

(declare-datatypes ((tuple0 0))
(((Tuple0))))
(declare-sort us_private 0)

(declare-fun private__bool_eq (us_private us_private) Bool)

(declare-const us_null_ext__ us_private)

(declare-sort us_type_of_heap 0)

(declare-datatypes ((us_type_of_heap__ref 0))
(((us_type_of_heap__refqtmk (us_type_of_heap__content us_type_of_heap)))))
(declare-sort us_image 0)

(declare-datatypes ((int__ref 0))
(((int__refqtmk (int__content Int)))))
(declare-datatypes ((bool__ref 0))
(((bool__refqtmk (bool__content Bool)))))
(declare-datatypes ((us_fixed__ref 0))
(((us_fixed__refqtmk (us_fixed__content Int)))))
(declare-datatypes ((real__ref 0))
(((real__refqtmk (real__content Real)))))
(declare-datatypes ((us_private__ref 0))
(((us_private__refqtmk (us_private__content us_private)))))
(define-fun int__ref___projection ((a int__ref)) Int (int__content a))

(define-fun us_fixed__ref___projection ((a us_fixed__ref)) Int (us_fixed__content
                                                               a))

(define-fun bool__ref___projection ((a bool__ref)) Bool (bool__content a))

(define-fun real__ref___projection ((a real__ref)) Real (real__content a))

(define-fun us_private__ref___projection ((a us_private__ref)) us_private 
  (us_private__content a))

(declare-sort integer 0)

(declare-fun integerqtint (integer) Int)

;; integer'axiom
  (assert
  (forall ((i integer))
  (and (<= (- 2147483648) (integerqtint i)) (<= (integerqtint i) 2147483647))))

(define-fun in_range ((x Int)) Bool (and (<= (- 2147483648) x)
                                    (<= x 2147483647)))

(declare-fun attr__ATTRIBUTE_IMAGE (Int) us_image)

(declare-fun attr__ATTRIBUTE_VALUE__pre_check (us_image) Bool)

(declare-fun attr__ATTRIBUTE_VALUE (us_image) Int)

(declare-fun user_eq (integer integer) Bool)

(declare-const dummy integer)

(declare-datatypes ((integer__ref 0))
(((integer__refqtmk (integer__content integer)))))
(define-fun integer__ref_integer__content__projection ((a integer__ref)) integer 
  (integer__content a))

(define-fun dynamic_invariant ((temp___expr_18 Int) (temp___is_init_14 Bool)
  (temp___skip_constant_15 Bool) (temp___do_toplevel_16 Bool)
  (temp___do_typ_inv_17 Bool)) Bool (=>
                                    (or (= temp___is_init_14 true)
                                    (<= (- 2147483648) 2147483647)) (in_range
                                    temp___expr_18)))

(declare-const attr__ATTRIBUTE_ADDRESS Int)

(define-fun to_rep ((x integer)) Int (integerqtint x))

(declare-fun of_rep (Int) integer)

;; inversion_axiom
  (assert
  (forall ((x integer)) (! (= (of_rep (to_rep x)) x) :pattern ((to_rep x)) )))

;; range_axiom
  (assert
  (forall ((x integer)) (! (in_range (to_rep x)) :pattern ((to_rep x)) )))

;; coerce_axiom
  (assert
  (forall ((x Int))
  (! (=> (in_range x) (= (to_rep (of_rep x)) x)) :pattern ((to_rep
                                                           (of_rep x))) )))

(declare-datatypes ((map__ref 0))
(((map__refqtmk (map__content (Array Int integer))))))
(declare-fun slide ((Array Int integer) Int Int) (Array Int integer))

;; slide_eq
  (assert
  (forall ((a (Array Int integer)))
  (forall ((first Int))
  (! (= (slide a first first) a) :pattern ((slide a first first)) ))))

;; slide_def
  (assert
  (forall ((a (Array Int integer)))
  (forall ((old_first Int))
  (forall ((new_first Int))
  (forall ((i Int))
  (! (= (select (slide a old_first new_first) i) (select a (- i (- new_first old_first)))) :pattern ((select 
  (slide a old_first new_first) i)) ))))))

(define-fun bool_eq ((a (Array Int integer)) (a__first Int) (a__last Int)
  (b (Array Int integer)) (b__first Int)
  (b__last Int)) Bool (ite (and
                           (ite (<= a__first a__last)
                           (and (<= b__first b__last)
                           (= (- a__last a__first) (- b__last b__first)))
                           (< b__last b__first))
                           (forall ((temp___idx_154 Int))
                           (=>
                           (and (<= a__first temp___idx_154)
                           (<= temp___idx_154 a__last))
                           (= (to_rep (select a temp___idx_154)) (to_rep
                                                                 (select b (+ (- b__first a__first) temp___idx_154)))))))
                      true false))

;; bool_eq_rev
  (assert
  (forall ((a (Array Int integer)) (b (Array Int integer)))
  (forall ((a__first Int) (a__last Int) (b__first Int) (b__last Int))
  (=> (= (bool_eq b b__first b__last a a__first a__last) true)
  (and
  (ite (<= a__first a__last)
  (and (<= b__first b__last) (= (- a__last a__first) (- b__last b__first)))
  (< b__last b__first))
  (forall ((temp___idx_154 Int))
  (=> (and (<= a__first temp___idx_154) (<= temp___idx_154 a__last))
  (= (to_rep (select a temp___idx_154)) (to_rep
                                        (select b (+ (- b__first a__first) temp___idx_154)))))))))))

(declare-const attr__ATTRIBUTE_ADDRESS1 Int)

(declare-const b Int)

(declare-const attr__ATTRIBUTE_ADDRESS2 Int)

(declare-sort ta1D1 0)

(declare-fun ta1D1qtint (ta1D1) Int)

;; ta1D1'axiom
  (assert
  (forall ((i ta1D1)) (and (<= 1 (ta1D1qtint i)) (<= (ta1D1qtint i) 1))))

(define-fun in_range1 ((x Int)) Bool (and (<= 1 x) (<= x 1)))

(declare-fun attr__ATTRIBUTE_IMAGE1 (Int) us_image)

(declare-fun attr__ATTRIBUTE_VALUE__pre_check1 (us_image) Bool)

(declare-fun attr__ATTRIBUTE_VALUE1 (us_image) Int)

(declare-fun user_eq1 (ta1D1 ta1D1) Bool)

(declare-const dummy1 ta1D1)

(declare-datatypes ((ta1D1__ref 0))
(((ta1D1__refqtmk (ta1D1__content ta1D1)))))
(define-fun ta1D1__ref_ta1D1__content__projection ((a ta1D1__ref)) ta1D1 
  (ta1D1__content a))

(declare-sort t41s 0)

(declare-fun t41sqtint (t41s) Int)

;; t41s'axiom
  (assert
  (forall ((i t41s)) (and (<= 1 (t41sqtint i)) (<= (t41sqtint i) 1))))

(define-fun in_range2 ((x Int)) Bool (and (<= 1 x) (<= x 1)))

(declare-fun attr__ATTRIBUTE_IMAGE2 (Int) us_image)

(declare-fun attr__ATTRIBUTE_VALUE__pre_check2 (us_image) Bool)

(declare-fun attr__ATTRIBUTE_VALUE2 (us_image) Int)

(declare-fun user_eq2 (t41s t41s) Bool)

(declare-const dummy2 t41s)

(declare-datatypes ((t41s__ref 0))
(((t41s__refqtmk (t41s__content t41s)))))
(define-fun t41s__ref_t41s__content__projection ((a t41s__ref)) t41s 
  (t41s__content a))

(declare-sort t43s 0)

(declare-fun t43sqtint (t43s) Int)

;; t43s'axiom
  (assert
  (forall ((i t43s)) (and (<= 1 (t43sqtint i)) (<= (t43sqtint i) 1))))

(define-fun in_range3 ((x Int)) Bool (and (<= 1 x) (<= x 1)))

(declare-fun attr__ATTRIBUTE_IMAGE3 (Int) us_image)

(declare-fun attr__ATTRIBUTE_VALUE__pre_check3 (us_image) Bool)

(declare-fun attr__ATTRIBUTE_VALUE3 (us_image) Int)

(declare-fun user_eq3 (t43s t43s) Bool)

(declare-const dummy3 t43s)

(declare-datatypes ((t43s__ref 0))
(((t43s__refqtmk (t43s__content t43s)))))
(define-fun t43s__ref_t43s__content__projection ((a t43s__ref)) t43s 
  (t43s__content a))

(declare-fun temp_____aggregate_def_205 (Int) (Array Int integer))

(declare-fun temp_____aggregate_def_212 (Int) (Array Int integer))

;; def_axiom
  (assert
  (forall ((temp___207 Int))
  (=> (dynamic_invariant temp___207 true true true true)
  (= (to_rep (select (temp_____aggregate_def_205 temp___207) 1)) temp___207))))

;; def_axiom
  (assert
  (forall ((temp___214 Int))
  (=> (dynamic_invariant temp___214 true true true true)
  (= (to_rep (select (temp_____aggregate_def_212 temp___214) 1)) temp___214))))

(assert
;; defqtvc
 ;; File "arr_aggregate.ads", line 30, characters 0-0
  (not
  (forall ((one Int) (a (Array Int integer)))
  (=> (dynamic_invariant one true false true true)
  (=> (dynamic_invariant b true false true true)
  (=> (= one 1)
  (=>
  (ite (= b 1) (= (to_rep (select a one)) one)
  (forall ((k Int))
  (=> (and (<= 1 k) (<= k 1)) (= (to_rep (select a k)) one))))
  (=> (= b 1) (= (bool_eq a 1 1 (temp_____aggregate_def_205 one) 1 1) true)))))))))
(check-sat)
